Copyright (C) 2013-2015, Filipe Brandao
Build (method = -2)
  #dp: 523
  Step-3' Graph: 26 vertices and 127 arcs (0.00s)
  Step-4' Graph: 21 vertices and 117 arcs (0.00s)
  #V4/#V3 = 0.81
  #A4/#A3 = 0.92
Ready! (0.00s)
Optimize a model with 72 rows, 118 columns and 316 nonzeros
Found heuristic solution: objective 89
Presolve removed 43 rows and 48 columns
Presolve time: 0.00s
Presolved: 29 rows, 70 columns, 175 nonzeros
Variable types: 0 continuous, 70 integer (17 binary)
Optimize a model with 29 rows, 70 columns and 175 nonzeros
Presolved: 29 rows, 70 columns, 175 nonzeros

Root barrier log...

Ordering time: 0.00s

Barrier statistics:
 AA' NZ     : 7.300e+01
 Factor NZ  : 2.700e+02
 Factor Ops : 3.110e+03 (less than 1 second per iteration)
 Threads    : 1

                  Objective                Residual
Iter       Primal          Dual         Primal    Dual     Compl     Time
   0   5.89914925e+02 -2.69527992e+02  1.42e+02 1.65e-01  1.61e+01     0s
   1   1.45763978e+02 -5.46194614e+01  1.14e+01 2.78e-16  1.95e+00     0s
   2   8.72925434e+01  5.22611049e+01  4.35e-01 3.55e-15  2.44e-01     0s
   3   7.58643861e+01  6.82681529e+01  2.07e-02 2.42e-16  5.14e-02     0s
   4   7.14369538e+01  7.03271120e+01  2.53e-03 3.33e-16  7.52e-03     0s
   5   7.10209447e+01  7.09802186e+01  1.31e-04 3.33e-16  2.76e-04     0s
   6   7.10000021e+01  7.09999994e+01  4.31e-09 4.44e-16  1.86e-08     0s
   7   7.10000000e+01  7.10000000e+01  1.64e-14 3.33e-16  1.90e-14     0s

Barrier solved model in 7 iterations and 0.00 seconds
Optimal objective 7.10000000e+01


Root relaxation: objective 7.100000e+01, 25 iterations, 0.00 seconds

    Nodes    |    Current Node    |     Objective Bounds      |     Work
 Expl Unexpl |  Obj  Depth IntInf | Incumbent    BestBd   Gap | It/Node Time

*    0     0               0      71.0000000   71.00000  0.00%     -    0s

Explored 0 nodes (25 simplex iterations) in 0.00 seconds
Thread count was 1 (of 4 available processors)

Optimal solution found (tolerance 0.00e+00)
Best objective 7.100000000000e+01, best bound 7.100000000000e+01, gap 0.0%
Preprocessing time: 0.00 seconds
Gurobi run time: 0.00 seconds
Total run time: 0.00 seconds
Objective: 71
Solution:
2 x [i=1]
2 x [i=2]
1 x [i=3]
3 x [i=4]
2 x [i=5]
2 x [i=6]
1 x [i=7]
1 x [i=8]
1 x [i=9]
1 x [i=10]
3 x [i=11]
1 x [i=12]
3 x [i=13]
3 x [i=14]
2 x [i=15]
1 x [i=16]
2 x [i=17]
4 x [i=18]
1 x [i=19]
1 x [i=19, i=51]
1 x [i=20, i=50]
2 x [i=21, i=50]
4 x [i=22]
2 x [i=22, i=48]
1 x [i=22, i=49]
1 x [i=23, i=46]
3 x [i=24, i=45]
3 x [i=25, i=43]
1 x [i=25, i=44]
1 x [i=26, i=42]
3 x [i=27, i=41]
1 x [i=28, i=40]
2 x [i=29]
1 x [i=29, i=44]
1 x [i=30, i=47]
1 x [i=31, i=38]
2 x [i=32, i=39]
1 x [i=33, i=37]
2 x [i=34, i=35]
1 x [i=35, i=36]
